Optimize a model with 1261 rows, 659 columns and 3368 nonzeros
Model has 7 quadratic objective terms
Model has 301 quadratic constraints
Variable types: 0 continuous, 659 integer (652 binary)
Coefficient statistics:
  Matrix range     [1e+00, 2e+04]
  QMatrix range    [1e+00, 1e+00]
  QLMatrix range   [1e+00, 1e+00]
  Objective range  [1e+02, 8e+02]
  QObjective range [2e+03, 3e+03]
  Bounds range     [1e+00, 1e+00]
  RHS range        [1e+00, 2e+00]
Presolve removed 910 rows and 344 columns
Presolve time: 0.00s
Presolved: 1562 rows, 623 columns, 3941 nonzeros
Variable types: 0 continuous, 623 integer (609 binary)
Found heuristic solution: objective 20344.497000

Root relaxation: objective 1.451577e+04, 162 iterations, 0.00 seconds

    Nodes    |    Current Node    |     Objective Bounds      |     Work
 Expl Unexpl |  Obj  Depth IntInf | Incumbent    BestBd   Gap | It/Node Time

     0     0 14515.7698    0   92 20344.4970 14515.7698  28.7%     -    0s
H    0     0                    16636.899439 14515.7698  12.7%     -    0s
     0     0 14600.2183    0  154 16636.8994 14600.2183  12.2%     -    0s
     0     0 14617.4220    0  152 16636.8994 14617.4220  12.1%     -    0s
     0     0 14764.4389    0   90 16636.8994 14764.4389  11.3%     -    0s
     0     0 14774.8369    0  147 16636.8994 14774.8369  11.2%     -    0s
     0     0 14845.9286    0  152 16636.8994 14845.9286  10.8%     -    0s
     0     0 14845.9286    0  152 16636.8994 14845.9286  10.8%     -    0s
     0     2 14845.9286    0  151 16636.8994 14845.9286  10.8%     -    0s

Cutting planes:
  Gomory: 3
  Implied bound: 18
  MIR: 1

Explored 55 nodes (3598 simplex iterations) in 0.11 seconds
Thread count was 6 (of 6 available processors)

Solution count 2: 16636.9 20344.5 

Optimal solution found (tolerance 1.00e-04)
Best objective 1.663689943931e+04, best bound 1.663689943931e+04, gap 0.0000%
